Set parameter TokenServer to value "hpc-licenses.hpcc.usc.edu"
Set parameter TimeLimit to value 3600
Gurobi Optimizer version 9.5.1 build v9.5.1rc2 (linux64)
Thread count: 20 physical cores, 20 logical processors, using up to 20 threads
Optimize a model with 6006 rows, 4529 columns and 23034 nonzeros
Model fingerprint: 0x3d299aeb
Variable types: 4506 continuous, 23 integer (23 binary)
Coefficient statistics:
  Matrix range     [1e+00, 1e+00]
  Objective range  [1e-03, 3e+00]
  Bounds range     [1e+00, 1e+00]
  RHS range        [1e+00, 1e+00]
Presolve removed 1520 rows and 1515 columns
Presolve time: 0.07s
Presolved: 4486 rows, 3014 columns, 20481 nonzeros
Variable types: 2994 continuous, 20 integer (20 binary)
Found heuristic solution: objective 233.2311618

Root relaxation: objective 2.401960e+02, 2038 iterations, 0.05 seconds (0.04 work units)

    Nodes    |    Current Node    |     Objective Bounds      |     Work
 Expl Unexpl |  Obj  Depth IntInf | Incumbent    BestBd   Gap | It/Node Time

     0     0  240.19599    0    2  233.23116  240.19599  2.99%     -    0s
H    0     0                     235.5494341  240.19599  1.97%     -    0s
     0     0  239.86846    0    2  235.54943  239.86846  1.83%     -    0s
H    0     0                     237.5699711  238.74665  0.50%     -    0s
     0     0  237.56997    0    2  237.56997  237.56997  0.00%     -    0s

Cutting planes:
  Gomory: 4
  MIR: 157
  Flow cover: 1
  RLT: 6
  Relax-and-lift: 15

Explored 1 nodes (2335 simplex iterations) in 0.36 seconds (0.20 work units)
Thread count was 20 (of 20 available processors)

Solution count 3: 237.57 235.549 233.231 

Optimal solution found (tolerance 1.00e-04)
Best objective 2.375699711285e+02, best bound 2.375699711285e+02, gap 0.0000%



#########node  1
V1.4
#########node  2
0.0,1.0
#########node  3
1.0,0.0


Total Solving Time 0.7080729007720947
obj value 237.56997112846574
Policy Regret train (Sum) 0.5855838979164089
Best Treatment Found train (%) 89.0
treatment classification acc train (%) 84.8
Policy Regret test (Sum) 15.20854945905153
Best Treatment Found test (%) 88.23
treatment classification acc test (%) 82.16
Set parameter TokenServer to value "hpc-licenses.hpcc.usc.edu"
Set parameter TimeLimit to value 3600
Gurobi Optimizer version 9.5.1 build v9.5.1rc2 (linux64)
Thread count: 20 physical cores, 20 logical processors, using up to 20 threads
Optimize a model with 6006 rows, 4529 columns and 23034 nonzeros
Model fingerprint: 0x3d299aeb
Variable types: 4506 continuous, 23 integer (23 binary)
Coefficient statistics:
  Matrix range     [1e+00, 1e+00]
  Objective range  [1e-03, 3e+00]
  Bounds range     [1e+00, 1e+00]
  RHS range        [1e+00, 1e+00]
Presolve removed 1520 rows and 1515 columns
Presolve time: 0.05s
Presolved: 4486 rows, 3014 columns, 20481 nonzeros
Variable types: 2994 continuous, 20 integer (20 binary)
Found heuristic solution: objective 233.2311618

Root relaxation: objective 2.401960e+02, 2038 iterations, 0.03 seconds (0.04 work units)

    Nodes    |    Current Node    |     Objective Bounds      |     Work
 Expl Unexpl |  Obj  Depth IntInf | Incumbent    BestBd   Gap | It/Node Time

     0     0  240.19599    0    2  233.23116  240.19599  2.99%     -    0s
H    0     0                     235.5494341  240.19599  1.97%     -    0s
     0     0  239.86846    0    2  235.54943  239.86846  1.83%     -    0s
H    0     0                     237.5699711  238.74665  0.50%     -    0s
     0     0  237.56997    0    2  237.56997  237.56997  0.00%     -    0s

Cutting planes:
  Gomory: 4
  MIR: 157
  Flow cover: 1
  RLT: 6
  Relax-and-lift: 15

Explored 1 nodes (2335 simplex iterations) in 0.26 seconds (0.20 work units)
Thread count was 20 (of 20 available processors)

Solution count 3: 237.57 235.549 233.231 

Optimal solution found (tolerance 1.00e-04)
Best objective 2.375699711285e+02, best bound 2.375699711285e+02, gap 0.0000%



#########node  1
V1.4
#########node  2
0.0,1.0
#########node  3
1.0,0.0


Total Solving Time 0.5977857112884521
obj value 237.56997112846574
Policy Regret train (Sum) 0.5855838979164089
Best Treatment Found train (%) 89.0
treatment classification acc train (%) 84.8
Policy Regret test (Sum) 15.20854945905153
Best Treatment Found test (%) 88.23
treatment classification acc test (%) 82.16
